NAME          
ROWS
 N  OBJ
 L  c3
 L  c4
 L  c5
 L  c6
 L  c7
 G  c1
 G  c2
COLUMNS
    ss[1]     c1        1
    ss[1]     OBJ       1000
    ss[2]     c2        1
    ss[2]     OBJ       1000
    s[1]      c3        1
    s[1]      OBJ       -1000
    s[2]      c4        1
    s[2]      OBJ       -1000
    s[3]      c5        1
    s[3]      OBJ       -1000
    s[4]      c6        1
    s[4]      OBJ       -1000
    s[5]      c7        1
    s[5]      OBJ       -1000
    MARKER    'MARKER'                 'INTORG'
    x[1]      c3        919
    x[1]      c4        866
    x[1]      c5        956
    x[1]      c6        27
    x[1]      c7        551
    x[1]      c1        556
    x[1]      c2        413
    x[1]      OBJ       -216
    x[2]      c3        752
    x[2]      c4        178
    x[2]      c5        828
    x[2]      c6        827
    x[2]      c7        578
    x[2]      c1        125
    x[2]      c2        794
    x[2]      OBJ       -618
    x[3]      c3        389
    x[3]      c4        155
    x[3]      c5        958
    x[3]      c6        346
    x[3]      c7        221
    x[3]      c1        736
    x[3]      c2        494
    x[3]      OBJ       -278
    x[4]      c3        678
    x[4]      c4        678
    x[4]      c5        985
    x[4]      c6        631
    x[4]      c7        195
    x[4]      c1        557
    x[4]      c2        821
    x[4]      OBJ       1
    x[5]      c3        803
    x[5]      c4        969
    x[5]      c5        645
    x[5]      c6        720
    x[5]      c7        786
    x[5]      c1        301
    x[5]      c2        348
    x[5]      OBJ       -468
    x[6]      c3        595
    x[6]      c4        371
    x[6]      c5        338
    x[6]      c6        306
    x[6]      c7        5
    x[6]      c1        6
    x[6]      c2        961
    x[6]      OBJ       137
    x[7]      c3        171
    x[7]      c4        686
    x[7]      c5        755
    x[7]      c6        918
    x[7]      c7        970
    x[7]      c1        111
    x[7]      c2        63
    x[7]      OBJ       -615
    x[8]      c3        211
    x[8]      c4        424
    x[8]      c5        479
    x[8]      c6        662
    x[8]      c7        868
    x[8]      c1        16
    x[8]      c2        962
    x[8]      OBJ       -431
    x[9]      c3        52
    x[9]      c4        829
    x[9]      c5        453
    x[9]      c6        730
    x[9]      c7        243
    x[9]      c1        704
    x[9]      c2        799
    x[9]      OBJ       21
    x[10]     c3        449
    x[10]     c4        867
    x[10]     c5        647
    x[10]     c6        757
    x[10]     c7        80
    x[10]     c1        952
    x[10]     c2        242
    x[10]     OBJ       -235
    x[11]     c3        38
    x[11]     c4        330
    x[11]     c5        588
    x[11]     c6        253
    x[11]     c7        868
    x[11]     c1        408
    x[11]     c2        352
    x[11]     OBJ       -317
    x[12]     c3        658
    x[12]     c4        908
    x[12]     c5        467
    x[12]     c6        633
    x[12]     c7        483
    x[12]     c1        492
    x[12]     c2        337
    x[12]     OBJ       -622
    x[13]     c3        673
    x[13]     c4        781
    x[13]     c5        414
    x[13]     c6        725
    x[13]     c7        634
    x[13]     c1        163
    x[13]     c2        111
    x[13]     OBJ       -855
    x[14]     c3        470
    x[14]     c4        305
    x[14]     c5        237
    x[14]     c6        355
    x[14]     c7        825
    x[14]     c1        938
    x[14]     c2        559
    x[14]     OBJ       104
    x[15]     c3        256
    x[15]     c4        376
    x[15]     c5        229
    x[15]     c6        82
    x[15]     c7        891
    x[15]     c1        315
    x[15]     c2        889
    x[15]     OBJ       -171
    x[16]     c3        447
    x[16]     c4        664
    x[16]     c5        899
    x[16]     c6        520
    x[16]     c7        431
    x[16]     c1        949
    x[16]     c2        595
    x[16]     OBJ       -132
    x[17]     c3        834
    x[17]     c4        204
    x[17]     c5        50
    x[17]     c6        430
    x[17]     c7        179
    x[17]     c1        670
    x[17]     c2        914
    x[17]     OBJ       336
    x[18]     c3        329
    x[18]     c4        13
    x[18]     c5        65
    x[18]     c6        696
    x[18]     c7        706
    x[18]     c1        1000
    x[18]     c2        576
    x[18]     OBJ       75
    x[19]     c3        937
    x[19]     c4        809
    x[19]     c5        292
    x[19]     c6        420
    x[19]     c7        158
    x[19]     c1        457
    x[19]     c2        312
    x[19]     OBJ       -477
    x[20]     c3        998
    x[20]     c4        191
    x[20]     c5        908
    x[20]     c6        856
    x[20]     c7        48
    x[20]     c1        816
    x[20]     c2        323
    x[20]     OBJ       -256
    x[21]     c3        325
    x[21]     c4        288
    x[21]     c5        588
    x[21]     c6        784
    x[21]     c7        252
    x[21]     c1        357
    x[21]     c2        153
    x[21]     OBJ       -649
    x[22]     c3        918
    x[22]     c4        130
    x[22]     c5        221
    x[22]     c6        716
    x[22]     c7        996
    x[22]     c1        495
    x[22]     c2        888
    x[22]     OBJ       -343
    x[23]     c3        33
    x[23]     c4        17
    x[23]     c5        551
    x[23]     c6        23
    x[23]     c7        91
    x[23]     c1        916
    x[23]     c2        287
    x[23]     OBJ       167
    x[24]     c3        576
    x[24]     c4        215
    x[24]     c5        890
    x[24]     c6        830
    x[24]     c7        825
    x[24]     c1        852
    x[24]     c2        627
    x[24]     OBJ       -379
    x[25]     c3        448
    x[25]     c4        106
    x[25]     c5        701
    x[25]     c6        279
    x[25]     c7        116
    x[25]     c1        614
    x[25]     c2        888
    x[25]     OBJ       182
    x[26]     c3        118
    x[26]     c4        392
    x[26]     c5        318
    x[26]     c6        245
    x[26]     c7        146
    x[26]     c1        161
    x[26]     c2        634
    x[26]     OBJ       30
    x[27]     c3        825
    x[27]     c4        861
    x[27]     c5        865
    x[27]     c6        759
    x[27]     c7        980
    x[27]     c1        60
    x[27]     c2        424
    x[27]     OBJ       -686
    x[28]     c3        928
    x[28]     c4        478
    x[28]     c5        432
    x[28]     c6        444
    x[28]     c7        855
    x[28]     c1        382
    x[28]     c2        365
    x[28]     OBJ       -362
    x[29]     c3        306
    x[29]     c4        154
    x[29]     c5        224
    x[29]     c6        269
    x[29]     c7        886
    x[29]     c1        373
    x[29]     c2        374
    x[29]     OBJ       71
    x[30]     c3        393
    x[30]     c4        458
    x[30]     c5        867
    x[30]     c6        558
    x[30]     c7        78
    x[30]     c1        570
    x[30]     c2        85
    x[30]     OBJ       -367
    x[31]     c3        53
    x[31]     c4        693
    x[31]     c5        684
    x[31]     c6        725
    x[31]     c7        314
    x[31]     c1        182
    x[31]     c2        650
    x[31]     OBJ       -540
    x[32]     c3        100
    x[32]     c4        439
    x[32]     c5        967
    x[32]     c6        957
    x[32]     c7        517
    x[32]     c1        934
    x[32]     c2        265
    x[32]     OBJ       -307
    x[33]     c3        535
    x[33]     c4        296
    x[33]     c5        501
    x[33]     c6        471
    x[33]     c7        928
    x[33]     c1        129
    x[33]     c2        711
    x[33]     OBJ       -182
    x[34]     c3        495
    x[34]     c4        548
    x[34]     c5        48
    x[34]     c6        613
    x[34]     c7        236
    x[34]     c1        542
    x[34]     c2        204
    x[34]     OBJ       -273
    x[35]     c3        794
    x[35]     c4        682
    x[35]     c5        646
    x[35]     c6        400
    x[35]     c7        923
    x[35]     c1        767
    x[35]     c2        816
    x[35]     OBJ       30
    x[36]     c3        659
    x[36]     c4        793
    x[36]     c5        110
    x[36]     c6        506
    x[36]     c7        773
    x[36]     c1        964
    x[36]     c2        595
    x[36]     OBJ       -142
    x[37]     c3        951
    x[37]     c4        994
    x[37]     c5        574
    x[37]     c6        399
    x[37]     c7        54
    x[37]     c1        896
    x[37]     c2        111
    x[37]     OBJ       -126
    x[38]     c3        705
    x[38]     c4        930
    x[38]     c5        557
    x[38]     c6        437
    x[38]     c7        936
    x[38]     c1        350
    x[38]     c2        707
    x[38]     OBJ       -546
    x[39]     c3        232
    x[39]     c4        46
    x[39]     c5        628
    x[39]     c6        578
    x[39]     c7        219
    x[39]     c1        178
    x[39]     c2        774
    x[39]     OBJ       -326
    x[40]     c3        627
    x[40]     c4        26
    x[40]     c5        789
    x[40]     c6        627
    x[40]     c7        687
    x[40]     c1        557
    x[40]     c2        138
    x[40]     OBJ       -605
    x[41]     c3        566
    x[41]     c4        113
    x[41]     c5        579
    x[41]     c6        784
    x[41]     c7        941
    x[41]     c1        975
    x[41]     c2        687
    x[41]     OBJ       -242
    x[42]     c3        163
    x[42]     c4        337
    x[42]     c5        595
    x[42]     c6        432
    x[42]     c7        543
    x[42]     c1        70
    x[42]     c2        131
    x[42]     OBJ       -710
    x[43]     c3        438
    x[43]     c4        398
    x[43]     c5        471
    x[43]     c6        360
    x[43]     c7        140
    x[43]     c1        226
    x[43]     c2        279
    x[43]     OBJ       -146
    x[44]     c3        408
    x[44]     c4        262
    x[44]     c5        738
    x[44]     c6        573
    x[44]     c7        865
    x[44]     c1        356
    x[44]     c2        775
    x[44]     OBJ       13
    x[45]     c3        329
    x[45]     c4        650
    x[45]     c5        469
    x[45]     c6        188
    x[45]     c7        840
    x[45]     c1        404
    x[45]     c2        191
    x[45]     OBJ       -346
    x[46]     c3        638
    x[46]     c4        662
    x[46]     c5        920
    x[46]     c6        337
    x[46]     c7        472
    x[46]     c1        79
    x[46]     c2        217
    x[46]     OBJ       -607
    x[47]     c3        7
    x[47]     c4        777
    x[47]     c5        248
    x[47]     c6        942
    x[47]     c7        45
    x[47]     c1        833
    x[47]     c2        181
    x[47]     OBJ       -212
    x[48]     c3        892
    x[48]     c4        986
    x[48]     c5        312
    x[48]     c6        279
    x[48]     c7        418
    x[48]     c1        616
    x[48]     c2        750
    x[48]     OBJ       22
    x[49]     c3        965
    x[49]     c4        317
    x[49]     c5        204
    x[49]     c6        709
    x[49]     c7        12
    x[49]     c1        575
    x[49]     c2        890
    x[49]     OBJ       28
    x[50]     c3        6
    x[50]     c4        136
    x[50]     c5        814
    x[50]     c6        37
    x[50]     c7        473
    x[50]     c1        987
    x[50]     c2        776
    x[50]     OBJ       143
    x[51]     c3        648
    x[51]     c4        141
    x[51]     c5        932
    x[51]     c6        598
    x[51]     c7        972
    x[51]     c1        340
    x[51]     c2        484
    x[51]     OBJ       -564
    x[52]     c3        10
    x[52]     c4        638
    x[52]     c5        203
    x[52]     c6        498
    x[52]     c7        47
    x[52]     c1        794
    x[52]     c2        655
    x[52]     OBJ       233
    x[53]     c3        624
    x[53]     c4        519
    x[53]     c5        146
    x[53]     c6        908
    x[53]     c7        925
    x[53]     c1        321
    x[53]     c2        662
    x[53]     OBJ       -236
    x[54]     c3        848
    x[54]     c4        679
    x[54]     c5        480
    x[54]     c6        784
    x[54]     c7        801
    x[54]     c1        337
    x[54]     c2        662
    x[54]     OBJ       -516
    x[55]     c3        958
    x[55]     c4        198
    x[55]     c5        872
    x[55]     c6        71
    x[55]     c7        179
    x[55]     c1        580
    x[55]     c2        995
    x[55]     OBJ       276
    x[56]     c3        360
    x[56]     c4        334
    x[56]     c5        68
    x[56]     c6        963
    x[56]     c7        121
    x[56]     c1        920
    x[56]     c2        248
    x[56]     OBJ       73
    x[57]     c3        828
    x[57]     c4        224
    x[57]     c5        404
    x[57]     c6        405
    x[57]     c7        445
    x[57]     c1        425
    x[57]     c2        718
    x[57]     OBJ       -279
    x[58]     c3        514
    x[58]     c4        961
    x[58]     c5        415
    x[58]     c6        558
    x[58]     c7        282
    x[58]     c1        170
    x[58]     c2        321
    x[58]     OBJ       -522
    x[59]     c3        266
    x[59]     c4        93
    x[59]     c5        380
    x[59]     c6        357
    x[59]     c7        923
    x[59]     c1        955
    x[59]     c2        533
    x[59]     OBJ       273
    x[60]     c3        983
    x[60]     c4        279
    x[60]     c5        372
    x[60]     c6        562
    x[60]     c7        565
    x[60]     c1        581
    x[60]     c2        391
    x[60]     OBJ       -221
    x[61]     c3        335
    x[61]     c4        948
    x[61]     c5        44
    x[61]     c6        856
    x[61]     c7        752
    x[61]     c1        739
    x[61]     c2        81
    x[61]     OBJ       -664
    x[62]     c3        368
    x[62]     c4        632
    x[62]     c5        215
    x[62]     c6        384
    x[62]     c7        554
    x[62]     c1        622
    x[62]     c2        253
    x[62]     OBJ       -133
    x[63]     c3        77
    x[63]     c4        938
    x[63]     c5        87
    x[63]     c6        397
    x[63]     c7        859
    x[63]     c1        473
    x[63]     c2        879
    x[63]     OBJ       -225
    x[64]     c3        124
    x[64]     c4        58
    x[64]     c5        122
    x[64]     c6        439
    x[64]     c7        89
    x[64]     c1        789
    x[64]     c2        540
    x[64]     OBJ       130
    x[65]     c3        84
    x[65]     c4        586
    x[65]     c5        800
    x[65]     c6        109
    x[65]     c7        569
    x[65]     c1        946
    x[65]     c2        959
    x[65]     OBJ       227
    x[66]     c3        42
    x[66]     c4        325
    x[66]     c5        350
    x[66]     c6        379
    x[66]     c7        902
    x[66]     c1        499
    x[66]     c2        118
    x[66]     OBJ       -476
    x[67]     c3        993
    x[67]     c4        602
    x[67]     c5        822
    x[67]     c6        92
    x[67]     c7        935
    x[67]     c1        666
    x[67]     c2        989
    x[67]     OBJ       -230
    x[68]     c3        116
    x[68]     c4        946
    x[68]     c5        965
    x[68]     c6        186
    x[68]     c7        551
    x[68]     c1        546
    x[68]     c2        781
    x[68]     OBJ       -169
    x[69]     c3        95
    x[69]     c4        686
    x[69]     c5        63
    x[69]     c6        79
    x[69]     c7        457
    x[69]     c1        630
    x[69]     c2        678
    x[69]     OBJ       320
    x[70]     c3        6
    x[70]     c4        274
    x[70]     c5        950
    x[70]     c6        591
    x[70]     c7        397
    x[70]     c1        997
    x[70]     c2        787
    x[70]     OBJ       191
    x[71]     c3        957
    x[71]     c4        534
    x[71]     c5        747
    x[71]     c6        580
    x[71]     c7        17
    x[71]     c1        462
    x[71]     c2        424
    x[71]     OBJ       -620
    x[72]     c3        946
    x[72]     c4        213
    x[72]     c5        936
    x[72]     c6        487
    x[72]     c7        795
    x[72]     c1        750
    x[72]     c2        721
    x[72]     OBJ       26
    x[73]     c3        18
    x[73]     c4        606
    x[73]     c5        265
    x[73]     c6        893
    x[73]     c7        460
    x[73]     c1        841
    x[73]     c2        623
    x[73]     OBJ       111
    x[74]     c3        670
    x[74]     c4        859
    x[74]     c5        118
    x[74]     c6        733
    x[74]     c7        925
    x[74]     c1        795
    x[74]     c2        833
    x[74]     OBJ       -241
    x[75]     c3        846
    x[75]     c4        105
    x[75]     c5        663
    x[75]     c6        855
    x[75]     c7        488
    x[75]     c1        2
    x[75]     c2        986
    x[75]     OBJ       -505
    x[76]     c3        248
    x[76]     c4        980
    x[76]     c5        481
    x[76]     c6        612
    x[76]     c7        844
    x[76]     c1        522
    x[76]     c2        141
    x[76]     OBJ       -546
    x[77]     c3        746
    x[77]     c4        767
    x[77]     c5        12
    x[77]     c6        24
    x[77]     c7        917
    x[77]     c1        778
    x[77]     c2        66
    x[77]     OBJ       -407
    x[78]     c3        194
    x[78]     c4        523
    x[78]     c5        781
    x[78]     c6        750
    x[78]     c7        608
    x[78]     c1        42
    x[78]     c2        983
    x[78]     OBJ       -552
    x[79]     c3        573
    x[79]     c4        623
    x[79]     c5        976
    x[79]     c6        679
    x[79]     c7        859
    x[79]     c1        714
    x[79]     c2        449
    x[79]     OBJ       -556
    x[80]     c3        30
    x[80]     c4        3
    x[80]     c5        128
    x[80]     c6        738
    x[80]     c7        101
    x[80]     c1        645
    x[80]     c2        654
    x[80]     OBJ       437
    x[81]     c3        393
    x[81]     c4        326
    x[81]     c5        878
    x[81]     c6        416
    x[81]     c7        179
    x[81]     c1        855
    x[81]     c2        458
    x[81]     OBJ       -101
    x[82]     c3        420
    x[82]     c4        445
    x[82]     c5        578
    x[82]     c6        898
    x[82]     c7        468
    x[82]     c1        396
    x[82]     c2        675
    x[82]     OBJ       -374
    x[83]     c3        573
    x[83]     c4        822
    x[83]     c5        953
    x[83]     c6        27
    x[83]     c7        596
    x[83]     c1        768
    x[83]     c2        515
    x[83]     OBJ       6
    x[84]     c3        285
    x[84]     c4        55
    x[84]     c5        719
    x[84]     c6        189
    x[84]     c7        193
    x[84]     c1        392
    x[84]     c2        718
    x[84]     OBJ       -97
    x[85]     c3        434
    x[85]     c4        773
    x[85]     c5        901
    x[85]     c6        773
    x[85]     c7        858
    x[85]     c1        141
    x[85]     c2        486
    x[85]     OBJ       -671
    x[86]     c3        430
    x[86]     c4        665
    x[86]     c5        515
    x[86]     c6        967
    x[86]     c7        405
    x[86]     c1        544
    x[86]     c2        881
    x[86]     OBJ       -206
    x[87]     c3        657
    x[87]     c4        895
    x[87]     c5        588
    x[87]     c6        841
    x[87]     c7        677
    x[87]     c1        847
    x[87]     c2        726
    x[87]     OBJ       -327
    x[88]     c3        947
    x[88]     c4        2
    x[88]     c5        910
    x[88]     c6        28
    x[88]     c7        520
    x[88]     c1        263
    x[88]     c2        386
    x[88]     OBJ       -345
    x[89]     c3        791
    x[89]     c4        283
    x[89]     c5        616
    x[89]     c6        727
    x[89]     c7        985
    x[89]     c1        325
    x[89]     c2        796
    x[89]     OBJ       -583
    x[90]     c3        147
    x[90]     c4        250
    x[90]     c5        588
    x[90]     c6        214
    x[90]     c7        107
    x[90]     c1        227
    x[90]     c2        229
    x[90]     OBJ       -220
    x[91]     c3        296
    x[91]     c4        881
    x[91]     c5        928
    x[91]     c6        355
    x[91]     c7        947
    x[91]     c1        765
    x[91]     c2        398
    x[91]     OBJ       -584
    x[92]     c3        332
    x[92]     c4        393
    x[92]     c5        515
    x[92]     c6        22
    x[92]     c7        812
    x[92]     c1        128
    x[92]     c2        335
    x[92]     OBJ       -440
    x[93]     c3        722
    x[93]     c4        842
    x[93]     c5        972
    x[93]     c6        492
    x[93]     c7        268
    x[93]     c1        10
    x[93]     c2        624
    x[93]     OBJ       -646
    x[94]     c3        927
    x[94]     c4        609
    x[94]     c5        371
    x[94]     c6        668
    x[94]     c7        636
    x[94]     c1        973
    x[94]     c2        283
    x[94]     OBJ       -219
    x[95]     c3        135
    x[95]     c4        161
    x[95]     c5        899
    x[95]     c6        908
    x[95]     c7        76
    x[95]     c1        162
    x[95]     c2        182
    x[95]     OBJ       -669
    x[96]     c3        69
    x[96]     c4        191
    x[96]     c5        660
    x[96]     c6        339
    x[96]     c7        537
    x[96]     c1        743
    x[96]     c2        589
    x[96]     OBJ       -137
    x[97]     c3        453
    x[97]     c4        639
    x[97]     c5        885
    x[97]     c6        821
    x[97]     c7        154
    x[97]     c1        208
    x[97]     c2        153
    x[97]     OBJ       -635
    x[98]     c3        728
    x[98]     c4        364
    x[98]     c5        949
    x[98]     c6        846
    x[98]     c7        407
    x[98]     c1        223
    x[98]     c2        945
    x[98]     OBJ       -218
    x[99]     c3        818
    x[99]     c4        418
    x[99]     c5        302
    x[99]     c6        352
    x[99]     c7        329
    x[99]     c1        981
    x[99]     c2        272
    x[99]     OBJ       23
    x[100]    c3        352
    x[100]    c4        481
    x[100]    c5        997
    x[100]    c6        445
    x[100]    c7        696
    x[100]    c1        143
    x[100]    c2        849
    x[100]    OBJ       -502
RHS
    rhs       c3        36381
    rhs       c4        36418
    rhs       c5        42169
    rhs       c6        39038
    rhs       c7        39353
    rhs       c1        3948
    rhs       c2        4016
RANGES
BOUNDS
 LO bounds    ss[1]     0
 PL bounds    ss[1]
 LO bounds    ss[2]     0
 PL bounds    ss[2]
 MI bounds    s[1]
 UP bounds    s[1]      0
 MI bounds    s[2]
 UP bounds    s[2]      0
 MI bounds    s[3]
 UP bounds    s[3]      0
 MI bounds    s[4]
 UP bounds    s[4]      0
 MI bounds    s[5]
 UP bounds    s[5]      0
 BV bounds    x[1]
 BV bounds    x[2]
 BV bounds    x[3]
 BV bounds    x[4]
 BV bounds    x[5]
 BV bounds    x[6]
 BV bounds    x[7]
 BV bounds    x[8]
 BV bounds    x[9]
 BV bounds    x[10]
 BV bounds    x[11]
 BV bounds    x[12]
 BV bounds    x[13]
 BV bounds    x[14]
 BV bounds    x[15]
 BV bounds    x[16]
 BV bounds    x[17]
 BV bounds    x[18]
 BV bounds    x[19]
 BV bounds    x[20]
 BV bounds    x[21]
 BV bounds    x[22]
 BV bounds    x[23]
 BV bounds    x[24]
 BV bounds    x[25]
 BV bounds    x[26]
 BV bounds    x[27]
 BV bounds    x[28]
 BV bounds    x[29]
 BV bounds    x[30]
 BV bounds    x[31]
 BV bounds    x[32]
 BV bounds    x[33]
 BV bounds    x[34]
 BV bounds    x[35]
 BV bounds    x[36]
 BV bounds    x[37]
 BV bounds    x[38]
 BV bounds    x[39]
 BV bounds    x[40]
 BV bounds    x[41]
 BV bounds    x[42]
 BV bounds    x[43]
 BV bounds    x[44]
 BV bounds    x[45]
 BV bounds    x[46]
 BV bounds    x[47]
 BV bounds    x[48]
 BV bounds    x[49]
 BV bounds    x[50]
 BV bounds    x[51]
 BV bounds    x[52]
 BV bounds    x[53]
 BV bounds    x[54]
 BV bounds    x[55]
 BV bounds    x[56]
 BV bounds    x[57]
 BV bounds    x[58]
 BV bounds    x[59]
 BV bounds    x[60]
 BV bounds    x[61]
 BV bounds    x[62]
 BV bounds    x[63]
 BV bounds    x[64]
 BV bounds    x[65]
 BV bounds    x[66]
 BV bounds    x[67]
 BV bounds    x[68]
 BV bounds    x[69]
 BV bounds    x[70]
 BV bounds    x[71]
 BV bounds    x[72]
 BV bounds    x[73]
 BV bounds    x[74]
 BV bounds    x[75]
 BV bounds    x[76]
 BV bounds    x[77]
 BV bounds    x[78]
 BV bounds    x[79]
 BV bounds    x[80]
 BV bounds    x[81]
 BV bounds    x[82]
 BV bounds    x[83]
 BV bounds    x[84]
 BV bounds    x[85]
 BV bounds    x[86]
 BV bounds    x[87]
 BV bounds    x[88]
 BV bounds    x[89]
 BV bounds    x[90]
 BV bounds    x[91]
 BV bounds    x[92]
 BV bounds    x[93]
 BV bounds    x[94]
 BV bounds    x[95]
 BV bounds    x[96]
 BV bounds    x[97]
 BV bounds    x[98]
 BV bounds    x[99]
 BV bounds    x[100]
ENDATA
